Nb of jobs, Nb of Machines, Time seed, Machine seed, Upper bound, Lower bound
5,5,-1,-1,-1,-1
Times
97,61,18,95,31
66,86,7,35,31
37,59,13,33,44
70,93,61,30,39
12,17,39,24,60
Machines
2,4,5,3,1
3,1,2,5,4
2,4,3,1,5
2,4,1,5,3
4,1,3,2,5
